p cnf 19 10
e 1 2 0
a 3 4 5 6 7 0
e 8 9 0
a 10 0
e 11 0
a 12 13 0
e 14 15 16 17 18 0
a 19 0
-6 -7 -9 3 0
11 2 5 -9 -19 0
-5 2 10 13 1 0
-12 5 0
11 -14 17 -15 0
15 -9 3 -7 14 0
-6 -1 16 -15 0
-12 4 11 1 -6 0
12 4 -2 -8 5 0
16 -8 0
